
219
500
   400      4
   399      1
   398      2
   397      1
   396      2
   395      2
   393      1
   392      4
   391      2
   390      1
   389      1
   388      3
   385      1
   384      2
   383      3
   380      1
   379      2
   378      1
   377      2
   375      1
   372      2
   371      4
   369      1
   367      1
   366      1
   365      3
   364      1
   363      2
   362      2
   360      1
   359      2
   356      2
   355      1
   352      2
   351      2
   350      1
   348      1
   347      2
   346      2
   345      1
   343      2
   342      4
   340      2
   339      1
   338      1
   333      1
   332      2
   330      2
   329      3
   328      4
   327      1
   324      1
   322      3
   321      1
   319      3
   318      1
   316      1
   315      2
   312      2
   311      1
   310      1
   309      2
   308      3
   307      2
   306      2
   305      1
   303      4
   302      1
   301      2
   300      1
   299      4
   298      1
   297      2
   296      2
   295      1
   294      1
   293      3
   290      1
   289      1
   288      2
   287      1
   286      3
   285      2
   282      2
   280      2
   279      2
   278      1
   276      1
   275      1
   274      1
   273      4
   272      1
   270      4
   269      2
   268      3
   267      4
   266      2
   265      2
   264      1
   263      1
   260      1
   259      2
   258      2
   255      1
   254      3
   252      1
   249      1
   248      1
   246      4
   245      1
   244      3
   243      2
   242      1
   241      1
   240      2
   239      1
   238      2
   235      3
   234      1
   233      1
   231      2
   230      1
   229      2
   228      1
   227      1
   224      1
   223      1
   222      1
   221      1
   220      1
   219      2
   217      3
   216      4
   215      1
   213      4
   212      3
   211      2
   208      2
   207      1
   205      3
   203      2
   202      3
   199      2
   198      3
   197      2
   196      3
   195      1
   194      1
   193      1
   192      1
   191      1
   190      2
   189      1
   187      1
   186      3
   185      1
   183      2
   181      1
   180      3
   179      1
   178      2
   177      2
   176      2
   175      2
   174      1
   173      2
   171      2
   169      1
   168      1
   165      2
   164      2
   163      1
   161      2
   160      1
   159      1
   157      2
   156      2
   154      1
   153      1
   152      1
   151      2
   150      3
   149      1
   148      2
   147      3
   146      2
   145      2
   144      1
   143      2
   142      1
   141      1
   140      1
   139      1
   138      4
   137      3
   136      2
   133      1
   132      3
   131      1
   130      1
   129      3
   128      1
   127      2
   124      1
   123      2
   122      2
   119      1
   118      2
   117      5
   114      2
   113      4
   111      1
   110      2
   109      1
   108      3
   107      2
   106      1
   105      2
   103      3




The initial LP solution: time=0.26


File: BPP_400_500_0.2_0.8_3.txt  Instance No. 1
Wed Feb 25 13:38:18 2015

LP solution: lpval=202.1666666666667 lpbnd=203

4: 0:1 obj 1\\
1: 1:1 obj 1\\
2: 2:1 obj 1\\
1: 3:1 218:1 obj 1\\
2: 4:1 218:1 obj 1\\
2: 5:1 217:1 obj 1\\
1: 6:1 215:1 obj 1\\
3: 7:1 214:1 obj 1\\
1: 7:1 215:1 obj 1\\
1: 8:1 213:1 obj 1\\
1: 8:1 216:1 obj 1\\
1: 9:1 212:1 obj 1\\
1: 10:1 211:1 obj 1\\
1: 11:1 obj 1\\
2: 11:1 212:1 obj 1\\
1: 12:1 209:1 obj 1\\
1: 13:1 210:1 obj 1\\
3: 14:1 208:1 obj 1\\
1: 15:1 206:1 obj 1\\
2: 16:1 207:1 obj 1\\
1: 17:1 205:1 obj 1\\
2: 18:1 204:1 obj 1\\
1: 19:1 203:1 obj 1\\
1: 20:1 201:1 obj 1\\
1: 20:1 202:1 obj 1\\
3: 21:1 200:1 obj 1\\
1: 22:1 198:1 obj 1\\
1: 23:1 196:1 obj 1\\
1: 24:1 197:1 obj 1\\
2: 25:1 197:1 obj 1\\
1: 25:1 199:1 obj 1\\
1: 26:1 195:1 obj 1\\
2: 27:1 194:1 obj 1\\
2: 28:1 193:1 obj 1\\
1: 29:1 191:1 obj 1\\
1: 30:1 190:1 obj 1\\
1: 30:1 195:1 obj 1\\
1: 31:1 187:1 obj 1\\
1: 32:1 186:1 obj 1\\
2: 33:1 183:1 obj 1\\
1: 34:1 182:1 obj 1\\
1: 34:1 193:1 obj 1\\
1: 35:1 181:1 obj 1\\
1: 36:1 179:1 obj 1\\
1: 37:1 178:1 obj 1\\
1: 37:1 180:1 obj 1\\
1: 38:1 177:1 obj 1\\
1: 38:1 181:1 obj 1\\
1: 39:1 180:1 obj 1\\
2: 40:1 175:1 obj 1\\
2: 41:1 176:1 obj 1\\
2: 41:1 185:1 obj 1\\
1: 42:1 173:1 obj 1\\
1: 42:1 186:1 obj 1\\
1: 43:1 172:1 obj 1\\
1: 44:1 174:1 obj 1\\
1: 45:1 169:1 obj 1\\
1: 46:1 168:1 obj 1\\
1: 47:1 167:1 obj 1\\
2: 48:1 166:1 obj 1\\
1: 49:1 169:1 obj 1\\
2: 49:1 170:1 obj 1\\
1: 49:1 172:1 obj 1\\
1: 50:1 165:1 obj 1\\
1: 51:1 162:1 obj 1\\
2: 52:1 160:1 obj 1\\
1: 52:1 161:1 obj 1\\
1: 53:1 159:1 obj 1\\
1: 54:1 157:1 obj 1\\
2: 54:1 158:1 obj 1\\
1: 55:1 158:1 obj 1\\
2: 57:1 156:1 obj 1\\
1: 58:1 153:1 obj 1\\
1: 58:1 154:1 obj 1\\
1: 59:1 152:1 obj 1\\
1: 60:1 151:1 obj 1\\
1: 61:1 150:1 obj 1\\
1: 61:1 151:1 obj 1\\
1: 62:1 149:1 obj 1\\
1: 62:1 164:1 obj 1\\
1: 63:1 148:1 obj 1\\
1: 63:1 154:1 obj 1\\
1: 64:1 147:1 obj 1\\
1: 64:1 154:1 obj 1\\
1: 65:1 146:1 obj 1\\
2: 66:1 144:1 obj 1\\
2: 66:1 145:1 obj 1\\
2: 68:1 142:1 obj 1\\
1: 69:1 145:1 obj 1\\
3: 70:1 143:1 obj 1\\
1: 71:1 141:1 obj 1\\
2: 72:1 140:1 obj 1\\
2: 73:1 141:1 obj 1\\
1: 74:1 139:1 obj 1\\
1: 75:1 139:1 obj 1\\
1: 76:1 138:1 obj 1\\
1: 77:1 137:1 obj 1\\
1: 78:1 136:1 obj 1\\
2: 79:1 135:1 obj 1\\
1: 80:1 134:1 obj 1\\
3: 81:1 134:1 obj 1\\
1: 82:1 133:1 obj 1\\
2: 83:1 131:1 obj 1\\
1: 84:1 129:1 obj 1\\
1: 85:1 128:1 obj 1\\
1: 86:1 127:1 obj 1\\
1: 87:1 125:1 obj 1\\
1: 88:1 126:1 obj 1\\
1: 89:1 130:1 obj 1\\
4: 90:1 132:1 obj 1\\
1: 91:1 123:1 obj 1\\
1: 92:1 121:1 obj 1\\
1: 92:1 130:1 obj 1\\
2: 92:1 208:1 210:1 obj 1\\
2: 93:1 120:1 obj 1\\
2: 94:1 122:1 obj 1\\
1: 95:1 119:1 obj 1\\
1: 95:1 136:1 obj 1\\
1: 96:1 118:1 obj 1\\
2: 97:1 117:1 obj 1\\
1: 98:1 117:1 obj 1\\
1: 100:1 114:1 obj 1\\
1: 101:1 113:1 obj 1\\
1: 101:1 115:1 obj 1\\
2: 102:1 116:1 obj 1\\
1: 103:1 109:1 obj 1\\
3: 104:1 108:1 obj 1\\
1: 110:1 114:1 obj 1\\
1: 111:2 obj 1\\
0.5: 161:1 162:1 184:1 obj 1\\
1: 163:2 188:1 obj 1\\
1: 212:-1 obj 0\\
0.5: 108:2 obj 1\\
1: 105:1 112:1 obj 1\\
1: 106:1 107:1 obj 1\\
1: 56:1 181:1 obj 1\\
1: 67:1 184:1 obj 1\\
0.1666666666666667: 184:3 obj 1\\
1: 110:2 obj 1\\
1: 85:1 155:1 obj 1\\
1: 84:1 139:1 obj 1\\
1: 82:1 135:1 obj 1\\
1: 76:1 171:1 obj 1\\
1: 76:1 165:1 obj 1\\
1: 94:1 137:1 obj 1\\
0.5: 95:1 162:1 obj 1\\
0.5: 95:1 161:1 obj 1\\
1: 62:1 189:1 obj 1\\
1: 47:1 184:1 obj 1\\
1: 31:1 194:1 obj 1\\
1: 13:1 209:1 obj 1\\
1: 46:1 193:1 obj 1\\
1: 96:1 131:1 obj 1\\
1: 95:1 124:1 obj 1\\
1: 21:1 202:1 obj 1\\
1: 99:1 205:1 210:1 obj 1\\
1: 70:1 188:1 obj 1\\
1: 48:1 192:1 obj 1\\






File: BPP_400_500_0.2_0.8_3.txt  Instance No. 1
Wed Feb 25 13:38:18 2015

LP0 Time: 0.26 IPTime: 0.26 The best integer solution (203):

4: 0:1 obj 1\\
1: 1:1 obj 1\\
2: 2:1 obj 1\\
1: 3:1 218:1 obj 1\\
2: 4:1 218:1 obj 1\\
2: 5:1 217:1 obj 1\\
1: 6:1 215:1 obj 1\\
3: 7:1 214:1 obj 1\\
1: 7:1 215:1 obj 1\\
1: 8:1 213:1 obj 1\\
1: 8:1 216:1 obj 1\\
1: 9:1 212:1 obj 1\\
1: 10:1 211:1 obj 1\\
1: 11:1 obj 1\\
2: 11:1 212:1 obj 1\\
1: 12:1 209:1 obj 1\\
1: 13:1 210:1 obj 1\\
3: 14:1 208:1 obj 1\\
1: 15:1 206:1 obj 1\\
2: 16:1 207:1 obj 1\\
1: 17:1 205:1 obj 1\\
2: 18:1 204:1 obj 1\\
1: 19:1 203:1 obj 1\\
1: 20:1 201:1 obj 1\\
1: 20:1 202:1 obj 1\\
3: 21:1 200:1 obj 1\\
1: 22:1 198:1 obj 1\\
1: 23:1 196:1 obj 1\\
1: 24:1 197:1 obj 1\\
2: 25:1 197:1 obj 1\\
1: 25:1 199:1 obj 1\\
1: 26:1 195:1 obj 1\\
2: 27:1 194:1 obj 1\\
2: 28:1 193:1 obj 1\\
1: 29:1 191:1 obj 1\\
1: 30:1 190:1 obj 1\\
1: 30:1 195:1 obj 1\\
1: 31:1 187:1 obj 1\\
1: 32:1 186:1 obj 1\\
2: 33:1 183:1 obj 1\\
1: 34:1 182:1 obj 1\\
1: 34:1 193:1 obj 1\\
1: 35:1 181:1 obj 1\\
1: 36:1 179:1 obj 1\\
1: 37:1 178:1 obj 1\\
1: 37:1 180:1 obj 1\\
1: 38:1 177:1 obj 1\\
1: 38:1 181:1 obj 1\\
1: 39:1 180:1 obj 1\\
2: 40:1 175:1 obj 1\\
2: 41:1 176:1 obj 1\\
2: 41:1 185:1 obj 1\\
1: 42:1 173:1 obj 1\\
1: 42:1 186:1 obj 1\\
1: 43:1 172:1 obj 1\\
1: 44:1 174:1 obj 1\\
1: 45:1 169:1 obj 1\\
1: 46:1 168:1 obj 1\\
1: 47:1 167:1 obj 1\\
2: 48:1 166:1 obj 1\\
1: 49:1 169:1 obj 1\\
2: 49:1 170:1 obj 1\\
1: 49:1 172:1 obj 1\\
1: 50:1 165:1 obj 1\\
1: 51:1 162:1 obj 1\\
2: 52:1 160:1 obj 1\\
1: 52:1 161:1 obj 1\\
1: 53:1 159:1 obj 1\\
1: 54:1 157:1 obj 1\\
2: 54:1 158:1 obj 1\\
1: 55:1 158:1 obj 1\\
2: 57:1 156:1 obj 1\\
1: 58:1 153:1 obj 1\\
1: 58:1 154:1 obj 1\\
1: 59:1 152:1 obj 1\\
1: 60:1 151:1 obj 1\\
1: 61:1 150:1 obj 1\\
1: 61:1 151:1 obj 1\\
1: 62:1 149:1 obj 1\\
1: 62:1 164:1 obj 1\\
1: 63:1 148:1 obj 1\\
1: 63:1 154:1 obj 1\\
1: 64:1 147:1 obj 1\\
1: 64:1 154:1 obj 1\\
1: 65:1 146:1 obj 1\\
2: 66:1 144:1 obj 1\\
2: 66:1 145:1 obj 1\\
2: 68:1 142:1 obj 1\\
1: 69:1 145:1 obj 1\\
3: 70:1 143:1 obj 1\\
1: 71:1 141:1 obj 1\\
2: 72:1 140:1 obj 1\\
2: 73:1 141:1 obj 1\\
1: 74:1 139:1 obj 1\\
1: 75:1 139:1 obj 1\\
1: 76:1 138:1 obj 1\\
1: 77:1 137:1 obj 1\\
1: 78:1 136:1 obj 1\\
2: 79:1 135:1 obj 1\\
1: 80:1 134:1 obj 1\\
3: 81:1 134:1 obj 1\\
1: 82:1 133:1 obj 1\\
2: 83:1 131:1 obj 1\\
1: 84:1 129:1 obj 1\\
1: 85:1 128:1 obj 1\\
1: 86:1 127:1 obj 1\\
1: 87:1 125:1 obj 1\\
1: 88:1 126:1 obj 1\\
1: 89:1 130:1 obj 1\\
4: 90:1 132:1 obj 1\\
1: 91:1 123:1 obj 1\\
1: 92:1 121:1 obj 1\\
1: 92:1 130:1 obj 1\\
2: 92:1 208:1 210:1 obj 1\\
2: 93:1 120:1 obj 1\\
2: 94:1 122:1 obj 1\\
1: 95:1 119:1 obj 1\\
1: 95:1 136:1 obj 1\\
1: 96:1 118:1 obj 1\\
2: 97:1 117:1 obj 1\\
1: 98:1 117:1 obj 1\\
1: 100:1 114:1 obj 1\\
1: 101:1 113:1 obj 1\\
1: 101:1 115:1 obj 1\\
2: 102:1 116:1 obj 1\\
1: 103:1 109:1 obj 1\\
3: 104:1 108:1 obj 1\\
1: 110:1 114:1 obj 1\\
1: 111:2 obj 1\\
1: 161:1 162:1 184:1 obj 1\\
1: 163:2 188:1 obj 1\\
1: 105:1 112:1 obj 1\\
1: 106:1 107:1 obj 1\\
1: 56:1 181:1 obj 1\\
1: 67:1 184:1 obj 1\\
1: 110:2 obj 1\\
1: 85:1 155:1 obj 1\\
1: 84:1 139:1 obj 1\\
1: 82:1 135:1 obj 1\\
1: 76:1 171:1 obj 1\\
1: 76:1 165:1 obj 1\\
1: 94:1 137:1 obj 1\\
1: 62:1 189:1 obj 1\\
1: 47:1 184:1 obj 1\\
1: 31:1 194:1 obj 1\\
1: 13:1 209:1 obj 1\\
1: 46:1 193:1 obj 1\\
1: 96:1 131:1 obj 1\\
1: 95:1 124:1 obj 1\\
1: 21:1 202:1 obj 1\\
1: 99:1 205:1 210:1 obj 1\\
1: 70:1 188:1 obj 1\\
1: 48:1 192:1 obj 1\\
1: 95:1 obj 1\\
1: 108:1 obj 1\\



The last LP solution 


File: BPP_400_500_0.2_0.8_3.txt  Instance No. 1
Wed Feb 25 13:38:18 2015

LP solution: lpval=202.1666666666667 lpbnd=203

4: 0:1 obj 1\\
1: 1:1 obj 1\\
2: 2:1 obj 1\\
1: 3:1 218:1 obj 1\\
2: 4:1 218:1 obj 1\\
2: 5:1 217:1 obj 1\\
1: 6:1 215:1 obj 1\\
3: 7:1 214:1 obj 1\\
1: 7:1 215:1 obj 1\\
1: 8:1 213:1 obj 1\\
1: 8:1 216:1 obj 1\\
1: 9:1 212:1 obj 1\\
1: 10:1 211:1 obj 1\\
1: 11:1 obj 1\\
2: 11:1 212:1 obj 1\\
1: 12:1 209:1 obj 1\\
1: 13:1 210:1 obj 1\\
3: 14:1 208:1 obj 1\\
1: 15:1 206:1 obj 1\\
2: 16:1 207:1 obj 1\\
1: 17:1 205:1 obj 1\\
2: 18:1 204:1 obj 1\\
1: 19:1 203:1 obj 1\\
1: 20:1 201:1 obj 1\\
1: 20:1 202:1 obj 1\\
3: 21:1 200:1 obj 1\\
1: 22:1 198:1 obj 1\\
1: 23:1 196:1 obj 1\\
1: 24:1 197:1 obj 1\\
2: 25:1 197:1 obj 1\\
1: 25:1 199:1 obj 1\\
1: 26:1 195:1 obj 1\\
2: 27:1 194:1 obj 1\\
2: 28:1 193:1 obj 1\\
1: 29:1 191:1 obj 1\\
1: 30:1 190:1 obj 1\\
1: 30:1 195:1 obj 1\\
1: 31:1 187:1 obj 1\\
1: 32:1 186:1 obj 1\\
2: 33:1 183:1 obj 1\\
1: 34:1 182:1 obj 1\\
1: 34:1 193:1 obj 1\\
1: 35:1 181:1 obj 1\\
1: 36:1 179:1 obj 1\\
1: 37:1 178:1 obj 1\\
1: 37:1 180:1 obj 1\\
1: 38:1 177:1 obj 1\\
1: 38:1 181:1 obj 1\\
1: 39:1 180:1 obj 1\\
2: 40:1 175:1 obj 1\\
2: 41:1 176:1 obj 1\\
2: 41:1 185:1 obj 1\\
1: 42:1 173:1 obj 1\\
1: 42:1 186:1 obj 1\\
1: 43:1 172:1 obj 1\\
1: 44:1 174:1 obj 1\\
1: 45:1 169:1 obj 1\\
1: 46:1 168:1 obj 1\\
1: 47:1 167:1 obj 1\\
2: 48:1 166:1 obj 1\\
1: 49:1 169:1 obj 1\\
2: 49:1 170:1 obj 1\\
1: 49:1 172:1 obj 1\\
1: 50:1 165:1 obj 1\\
1: 51:1 162:1 obj 1\\
2: 52:1 160:1 obj 1\\
1: 52:1 161:1 obj 1\\
1: 53:1 159:1 obj 1\\
1: 54:1 157:1 obj 1\\
2: 54:1 158:1 obj 1\\
1: 55:1 158:1 obj 1\\
2: 57:1 156:1 obj 1\\
1: 58:1 153:1 obj 1\\
1: 58:1 154:1 obj 1\\
1: 59:1 152:1 obj 1\\
1: 60:1 151:1 obj 1\\
1: 61:1 150:1 obj 1\\
1: 61:1 151:1 obj 1\\
1: 62:1 149:1 obj 1\\
1: 62:1 164:1 obj 1\\
1: 63:1 148:1 obj 1\\
1: 63:1 154:1 obj 1\\
1: 64:1 147:1 obj 1\\
1: 64:1 154:1 obj 1\\
1: 65:1 146:1 obj 1\\
2: 66:1 144:1 obj 1\\
2: 66:1 145:1 obj 1\\
2: 68:1 142:1 obj 1\\
1: 69:1 145:1 obj 1\\
3: 70:1 143:1 obj 1\\
1: 71:1 141:1 obj 1\\
2: 72:1 140:1 obj 1\\
2: 73:1 141:1 obj 1\\
1: 74:1 139:1 obj 1\\
1: 75:1 139:1 obj 1\\
1: 76:1 138:1 obj 1\\
1: 77:1 137:1 obj 1\\
1: 78:1 136:1 obj 1\\
2: 79:1 135:1 obj 1\\
1: 80:1 134:1 obj 1\\
3: 81:1 134:1 obj 1\\
1: 82:1 133:1 obj 1\\
2: 83:1 131:1 obj 1\\
1: 84:1 129:1 obj 1\\
1: 85:1 128:1 obj 1\\
1: 86:1 127:1 obj 1\\
1: 87:1 125:1 obj 1\\
1: 88:1 126:1 obj 1\\
1: 89:1 130:1 obj 1\\
4: 90:1 132:1 obj 1\\
1: 91:1 123:1 obj 1\\
1: 92:1 121:1 obj 1\\
1: 92:1 130:1 obj 1\\
2: 92:1 208:1 210:1 obj 1\\
2: 93:1 120:1 obj 1\\
2: 94:1 122:1 obj 1\\
1: 95:1 119:1 obj 1\\
1: 95:1 136:1 obj 1\\
1: 96:1 118:1 obj 1\\
2: 97:1 117:1 obj 1\\
1: 98:1 117:1 obj 1\\
1: 100:1 114:1 obj 1\\
1: 101:1 113:1 obj 1\\
1: 101:1 115:1 obj 1\\
2: 102:1 116:1 obj 1\\
1: 103:1 109:1 obj 1\\
3: 104:1 108:1 obj 1\\
1: 110:1 114:1 obj 1\\
1: 111:2 obj 1\\
0.5: 161:1 162:1 184:1 obj 1\\
1: 163:2 188:1 obj 1\\
1: 212:-1 obj 0\\
0.5: 108:2 obj 1\\
1: 105:1 112:1 obj 1\\
1: 106:1 107:1 obj 1\\
1: 56:1 181:1 obj 1\\
1: 67:1 184:1 obj 1\\
0.1666666666666667: 184:3 obj 1\\
1: 110:2 obj 1\\
1: 85:1 155:1 obj 1\\
1: 84:1 139:1 obj 1\\
1: 82:1 135:1 obj 1\\
1: 76:1 171:1 obj 1\\
1: 76:1 165:1 obj 1\\
1: 94:1 137:1 obj 1\\
0.5: 95:1 162:1 obj 1\\
0.5: 95:1 161:1 obj 1\\
1: 62:1 189:1 obj 1\\
1: 47:1 184:1 obj 1\\
1: 31:1 194:1 obj 1\\
1: 13:1 209:1 obj 1\\
1: 46:1 193:1 obj 1\\
1: 96:1 131:1 obj 1\\
1: 95:1 124:1 obj 1\\
1: 21:1 202:1 obj 1\\
1: 99:1 205:1 210:1 obj 1\\
1: 70:1 188:1 obj 1\\
1: 48:1 192:1 obj 1\\



